SCIP Status        : solving was interrupted [time limit reached]
Total Time         :    3600.01
  solving          :    3600.00
  presolving       :       0.33 (included in solving)
  reading          :       0.01
  copying          :       0.79 (36 #copies) (minimal 0.00, maximal 0.06, average 0.02)
Original Problem   :
  Problem name     : bbbenchmark/g05_80.3.cut
  Variables        : 81 (80 binary, 0 integer, 0 implicit integer, 1 continuous)
  Constraints      : 1 initial, 1 maximal
  Objective        : minimize, 1 non-zeros (abs.min = 1, abs.max = 1)
Presolved Problem  :
  Problem name     : t_bbbenchmark/g05_80.3.cut
  Variables        : 1612 (80 binary, 0 integer, 1530 implicit integer, 2 continuous)
  Constraints      : 1534 initial, 5930 maximal
  Objective        : minimize, 1 non-zeros (abs.min = 1, abs.max = 1)
  Nonzeros         : 6307 constraint, 162 clique table
Presolvers         :   ExecTime  SetupTime  Calls  FixedVars   AggrVars   ChgTypes  ChgBounds   AddHoles    DelCons    AddCons   ChgSides   ChgCoefs
  boundshift       :       0.00       0.00      0          0          0          0          0          0          0          0          0          0
  convertinttobin  :       0.00       0.00      0          0          0          0          0          0          0          0          0          0
  domcol           :       0.00       0.00      1          0          0          0          0          0          0          0          0          0
  dualagg          :       0.00       0.00      0          0          0          0          0          0          0          0          0          0
  dualcomp         :       0.00       0.00      1          0          0          0          0          0          0          0          0          0
  dualinfer        :       0.00       0.00      0          0          0          0          0          0          0          0          0          0
  dualsparsify     :       0.00       0.00      1          0          0          0          0          0          0          0          0          0
  gateextraction   :       0.00       0.00      0          0          0          0          0          0          0          0          0          0
  implics          :       0.00       0.00      2          0          0          0          0          0          0          0          0          0
  inttobinary      :       0.00       0.00      0          0          0          0          0          0          0          0          0          0
  qpkktref         :       0.00       0.00      0          0          0          0          0          0          0          0          0          0
  redvub           :       0.00       0.00      0          0          0          0          0          0          0          0          0          0
  sparsify         :       0.00       0.00      1          0          0          0          0          0          0          0          0          0
  stuffing         :       0.00       0.00      0          0          0          0          0          0          0          0          0          0
  trivial          :       0.00       0.00      4          0          0          0          0          0          0          0          0          0
  tworowbnd        :       0.00       0.00      0          0          0          0          0          0          0          0          0          0
  dualfix          :       0.00       0.00      4          0          0          0          0          0          0          0          0          0
  genvbounds       :       0.00       0.00      0          0          0          0          0          0          0          0          0          0
  probing          :       0.22       0.00      1          0          0          0          0          0          0          0          0          0
  pseudoobj        :       0.00       0.00      1          0          0          0          1          0          0          0          0          0
  symmetry         :       0.00       0.00      0          0          0          0          0          0          0          0          0          0
  vbounds          :       0.00       0.00      1          0          0          0          0          0          0          0          0          0
  varbound         :       0.00       0.00      2          0          0          0          0          0          0          0          0          0
  and              :       0.01       0.01      2          0          0          0          0          0          0          0          0          0
  linear           :       0.00       0.00      2          0          0          0          0          0          0          0          0          0
  logicor          :       0.00       0.00      0          0          0          0          0          0          0          0          0          0
  bounddisjunction :       0.00       0.00      0          0          0          0          0          0          0          0          0          0
  nonlinear        :       0.09       0.00      5          0          0          0          1          0          0       1533          0          0
  benders          :       0.00       0.00      0          0          0          0          0          0          0          0          0          0
  components       :       0.00       0.00      1          0          0          0          0          0          0          0          0          0
  root node        :          -          -      -          0          -          -         28          -          -          -          -          -
Constraints        :     Number  MaxNumber  #Separate #Propagate    #EnfoLP    #EnfoRelax  #EnfoPS    #Check   #ResProp    Cutoffs    DomReds       Cuts    Applied      Conss   Children
  benderslp        :          0          0          0          0      64059          0          0        866          0          0          0          0          0          0          0
  integral         :          0          0          0          0      64059          0          0        866          0          0       3589          0          0       2355     124980
  varbound         :          1          1         23       6533          0          0          0         38          0          0         77          0          0          0          0
  and              :       1530       1530      73444     499443          6          0          0         38     180543          7    2192031       3392       3311          0          0
  linear           :          3          3         23     499438          6          0          0         36          4          0      40522          0          0          0          0
  logicor          :          0+      4396          0     113903          0          0          0          0        472        365         49          0          0          0          0
  bounddisjunction :          0+         4          0        726          0          0          0          0          0          1          0          0          0          0          0
  benders          :          0          0          0          0          6          0          0         34          0          0          0          0          0          0          0
  countsols        :          0          0          0          0          6          0          0         34          0          0          0          0          0          0          0
  components       :          0          0          0          0          0          0          0          0          0          0          0          0          0          0          0
Constraint Timings :  TotalTime  SetupTime   Separate  Propagate     EnfoLP     EnfoPS     EnfoRelax   Check    ResProp    SB-Prop
  benderslp        :       0.06       0.00       0.00       0.00       0.06       0.00       0.00       0.00       0.00       0.00
  integral         :      48.84       0.00       0.00       0.00      48.84       0.00       0.00       0.00       0.00       0.00
  varbound         :       0.01       0.00       0.00       0.01       0.00       0.00       0.00       0.00       0.00       0.00
  and              :      54.97       0.01      35.06      19.31       0.00       0.00       0.00       0.01       0.14       0.44
  linear           :       0.66       0.00       0.00       0.62       0.00       0.00       0.00       0.00       0.00       0.04
  logicor          :       4.87       0.00       0.00       4.84       0.00       0.00       0.00       0.00       0.00       0.03
  bounddisjunction :       0.00       0.00       0.00       0.00       0.00       0.00       0.00       0.00       0.00       0.00
  benders          :       0.00       0.00       0.00       0.00       0.00       0.00       0.00       0.00       0.00       0.00
  countsols        :       0.00       0.00       0.00       0.00       0.00       0.00       0.00       0.00       0.00       0.00
  components       :       0.18       0.00       0.00       0.18       0.00       0.00       0.00       0.00       0.00       0.00
Propagators        : #Propagate   #ResProp    Cutoffs    DomReds
  dualfix          :          3          0          0          0
  genvbounds       :          0          0          0          0
  nlobbt           :          0          0          0          0
  obbt             :          0          0          0          0
  probing          :          0          0          0          0
  pseudoobj        :     297151          0          0         30
  redcost          :     149391          0          0      47105
  rootredcost      :         16          0          0          0
  symmetry         :          0          0          0          0
  vbounds          :      45843          0          0          0
Propagator Timings :  TotalTime  SetupTime   Presolve  Propagate    ResProp    SB-Prop
  dualfix          :       0.00       0.00       0.00       0.00       0.00       0.00
  genvbounds       :       0.32       0.00       0.00       0.32       0.00       0.00
  nlobbt           :       0.00       0.00       0.00       0.00       0.00       0.00
  obbt             :       0.00       0.00       0.00       0.00       0.00       0.00
  probing          :       0.22       0.00       0.22       0.00       0.00       0.00
  pseudoobj        :       0.42       0.00       0.00       0.42       0.00       0.00
  redcost          :       6.74       0.00       0.00       6.74       0.00       0.00
  rootredcost      :       0.33       0.00       0.00       0.33       0.00       0.00
  symmetry         :       0.16       0.00       0.00       0.16       0.00       0.00
  vbounds          :       0.41       0.00       0.00       0.41       0.00       0.00
Conflict Analysis  :       Time      Calls    Success    DomReds  Conflicts   Literals    Reconvs ReconvLits   Dualrays   Nonzeros   LP Iters   (pool size: [10000,10000])
  propagation      :       0.00        373        265          -        303       41.3          0        0.0          -          -          -
  infeasible LP    :       0.00          0          0          -          0        0.0          0        0.0          0        0.0          0
  bound exceed. LP :      12.49       7732       5597          -      62431       61.8          3       34.7          0        0.0      34469
  strong branching :       0.00          0          0          -          0        0.0          0        0.0          -          -          0
  pseudo solution  :       0.00          0          0          -          0        0.0          0        0.0          -          -          -
  applied globally :       0.18          -          -          0      18692       68.1          -          -          0          -          -
  applied locally  :          -          -          -          0          0        0.0          -          -          0          -          -
Separators         :   ExecTime  SetupTime      Calls  RootCalls    Cutoffs    DomReds  FoundCuts ViaPoolAdd  DirectAdd    Applied ViaPoolApp  DirectApp      Conss
  cut pool         :       3.76          -      24090         43          -          -      36397    1181586          -          -          -          -          -    (maximal pool size:       2122)
  aggregation      :       6.07       0.00       4989         23          0          0        464       8957          0       3473       3473          0          0
  > cmir           :          -          -          -          -          -          -          -       8957          0       3473       3473          0          -
  > flowcover      :          -          -          -          -          -          -          -          0          0          0          0          0          -
  > knapsackcover  :          -          -          -          -          -          -          -          0          0          0          0          0          -
  cgmip            :       0.00       0.00          0          0          0          0          0          0          0          0          0          0          0
  clique           :       0.00       0.00         23         23          0          0          0          0          0          0          0          0          0
  closecuts        :       0.00       0.00          0          0          0          0          0          0          0          0          0          0          0
  convexproj       :       0.00       0.00          0          0          0          0          0          0          0          0          0          0          0
  disjunctive      :       0.00       0.00          0          0          0          0          0          0          0          0          0          0          0
  eccuts           :       0.00       0.00          0          0          0          0          0          0          0          0          0          0          0
  gauge            :       0.00       0.00          0          0          0          0          0          0          0          0          0          0          0
  gomory           :       0.00       0.00          0          0          0          0          0          0          0          0          0          0          0
  > gomorymi       :          -          -          -          -          -          -          -          0          0          0          0          0          -
  > strongcg       :          -          -          -          -          -          -          -          0          0          0          0          0          -
  impliedbounds    :       0.23       0.00       4989         23          0          0          0          0          0          0          0          0          0
  interlattice     :       0.00       0.00          0          0          0          0          0          0          0          0          0          0          0
  interminor       :       0.00       0.00          0          0          0          0          0          0          0          0          0          0          0
  intersub         :       0.00       0.00          0          0          0          0          0          0          0          0          0          0          0
  intobj           :       0.00       0.00          0          0          0          0          0          0          0          0          0          0          0
  mcf              :       0.00       0.00          1          1          0          0          0          0          0          0          0          0          0
  minor            :       0.02       0.00          0          0          0          0          0          0          0          0          0          0          0
  mixing           :       0.01       0.00       4989         23          0          0          0          0          0          0          0          0          0
  oddcycle         :       0.00       0.00          0          0          0          0          0          0          0          0          0          0          0
  rapidlearning    :       0.00       0.00          0          0          0          0          0          0          0          0          0          0          0
  rlt              :       0.00       0.00         10         10          0          0          0          0          0          0          0          0          0
  zerohalf         :      28.72       0.00       4223         20          0          0      35933    1172629          0     115746     115746          0          0
Cutselectors       :   ExecTime  SetupTime      Calls  RootCalls   Selected     Forced   Filtered  RootSelec   RootForc   RootFilt 
  hybrid           :       0.66       0.00      12691         20     122530          0    1062448        159          0         25
Pricers            :   ExecTime  SetupTime      Calls       Vars
  problem variables:       0.00          -          0          0
Branching Rules    :   ExecTime  SetupTime   BranchLP  BranchExt   BranchPS    Cutoffs    DomReds       Cuts      Conss   Children
  allfullstrong    :       0.00       0.00          0          0          0          0          0          0          0          0
  cloud            :       0.00       0.00          0          0          0          0          0          0          0          0
  distribution     :       0.00       0.00          0          0          0          0          0          0          0          0
  fullstrong       :       0.00       0.00          0          0          0          0          0          0          0          0
  inference        :       0.00       0.00          0          0          0          0          0          0          0          0
  leastinf         :       0.00       0.00          0          0          0          0          0          0          0          0
  lookahead        :       0.00       0.00          0          0          0          0          0          0          0          0
  mostinf          :       0.00       0.00          0          0          0          0          0          0          0          0
  multaggr         :       0.00       0.00          0          0          0          0          0          0          0          0
  nodereopt        :       0.00       0.00          0          0          0          0          0          0          0          0
  pscost           :       0.00       0.00          0          0          0          0          0          0          0          0
  random           :       0.00       0.00          0          0          0          0          0          0          0          0
  relpscost        :      48.66       0.00      64053          0          0          0       3589          0       2357     124980
  vanillafullstrong:       0.00       0.00          0          0          0          0          0          0          0          0
Primal Heuristics  :   ExecTime  SetupTime      Calls      Found       Best
  LP solutions     :       0.01          -          -          6          6
  relax solutions  :       0.00          -          -          0          0
  pseudo solutions :       0.00          -          -          0          0
  strong branching :       0.02          -          -          0          0
  actconsdiving    :       0.00       0.00          0          0          0
  adaptivediving   :       3.16       0.00         40          0          0
  alns             :       2.86       0.00         24          5          5
  bound            :       0.00       0.00          0          0          0
  clique           :       0.01       0.00          1          0          0
  coefdiving       :       0.00       0.00          0          0          0
  completesol      :       0.00       0.00          0          0          0
  conflictdiving   :      30.17       0.00        384          0          0
  crossover        :       1.20       0.00          8          2          2
  dins             :       0.00       0.00          0          0          0
  distributiondivin:      53.97       0.00        384          0          0
  dps              :       0.00       0.00          0          0          0
  dualval          :       0.00       0.00          0          0          0
  farkasdiving     :       0.00       0.00          0          0          0
  feaspump         :       0.00       0.00          0          0          0
  fixandinfer      :       0.00       0.00          0          0          0
  fracdiving       :      40.97       0.00        384          0          0
  gins             :       0.09       0.00          0          0          0
  guideddiving     :      32.52       0.00        383          2          2
  indicator        :       0.14       0.00          0          0          0
  indicatordiving  :       0.00       0.00          0          0          0
  intdiving        :       0.00       0.00          0          0          0
  intshifting      :       0.12       0.00         26          0          0
  linesearchdiving :      29.62       0.00        384          0          0
  localbranching   :       0.00       0.00          0          0          0
  locks            :       0.01       0.00          1          0          0
  lpface           :       0.09       0.00          0          0          0
  mpec             :      23.78       0.00          3          0          0
  multistart       :       0.00       0.00          0          0          0
  mutation         :       0.00       0.00          0          0          0
  nlpdiving        :      10.73       0.00          6          0          0
  objpscostdiving  :      38.21       0.00         62          6          0
  octane           :       0.00       0.00          0          0          0
  ofins            :       0.08       0.00          0          0          0
  oneopt           :       0.07       0.00         25          0          0
  padm             :       0.00       0.00          0          0          0
  proximity        :       0.00       0.00          0          0          0
  pscostdiving     :      37.90       0.00        384          1          1
  randrounding     :       0.09       0.00        828          0          0
  rens             :       0.00       0.00          0          0          0
  reoptsols        :       0.00       0.00          0          0          0
  repair           :       0.00       0.00          0          0          0
  rins             :       4.97       0.00          4          1          1
  rootsoldiving    :      36.07       0.00         46          1          0
  rounding         :       0.90       0.00       3767          0          0
  shiftandpropagate:       0.00       0.00          0          0          0
  shifting         :      44.01       0.00      14850         10          9
  simplerounding   :       0.10       0.00          0          0          0
  subnlp           :      93.75       0.00          0          0          0
  trivial          :       0.01       0.00          2          2          2
  trivialnegation  :       0.00       0.00          0          0          0
  trustregion      :       0.00       0.00          0          0          0
  trysol           :       0.10       0.00          0          0          0
  twoopt           :       0.00       0.00          0          0          0
  undercover       :       0.81       0.00          1          1          1
  vbounds          :       0.00       0.00          0          0          0
  veclendiving     :      25.37       0.00        383          0          0
  zeroobj          :       0.00       0.00          0          0          0
  zirounding       :       0.41       0.00       1000          0          0
  other solutions  :          -          -          -          0          -
Diving (single)    :      Calls      Nodes   LP Iters Backtracks  Conflicts   MinDepth   MaxDepth   AvgDepth  RoundSols  NLeafSols  MinSolDpt  MaxSolDpt  AvgSolDpt
  actconsdiving    :          0          -          -          -          -          -          -          -          -          -          -          -          -
  coefdiving       :          0          -          -          -          -          -          -          -          -          -          -          -          -
  conflictdiving   :        384      10547     326207        414      11714         34         68       43.6          0          -          -          -          -
  distributiondivin:        384       8678     422941        449       5702         32         50       39.0          0          -          -          -          -
  farkasdiving     :          0          -          -          -          -          -          -          -          -          -          -          -          -
  fracdiving       :        384      67129     418235        379       2904         43        534      191.2          0          -          -          -          -
  guideddiving     :        383      54588     342753        191       2111         51        432      159.6          0          2         71         85       78.0
  indicatordiving  :          0          -          -          -          -          -          -          -          -          -          -          -          -
  linesearchdiving :        384      12219     336556        471       9938         34         71       47.9          0          -          -          -          -
  pscostdiving     :        384      11710     426712        394       6288         37         59       46.9          0          1         59         59       59.0
  veclendiving     :        383      10091     271280        387      13869         37         58       43.0          0          -          -          -          -
Diving (adaptive)  :      Calls      Nodes   LP Iters Backtracks  Conflicts   MinDepth   MaxDepth   AvgDepth  RoundSols  NLeafSols  MinSolDpt  MaxSolDpt  AvgSolDpt
  actconsdiving    :         10        245      11459         11        150         34         43       39.3          0          -          -          -          -
  coefdiving       :         15        406      12006         15        526         35         59       42.6          0          -          -          -          -
  conflictdiving   :          0          -          -          -          -          -          -          -          -          -          -          -          -
  distributiondivin:          0          -          -          -          -          -          -          -          -          -          -          -          -
  farkasdiving     :          0          -          -          -          -          -          -          -          -          -          -          -          -
  fracdiving       :          2        284       2346          2         19        103        212      157.5          0          -          -          -          -
  guideddiving     :          5        802       5357          1          0         88        348      173.6          0          -          -          -          -
  indicatordiving  :          0          -          -          -          -          -          -          -          -          -          -          -          -
  linesearchdiving :          1         37        717          1         28         49         49       49.0          0          -          -          -          -
  pscostdiving     :          1         14        222          1          9         52         52       52.0          0          -          -          -          -
  veclendiving     :          6        166       4416          7        154         39         55       45.3          0          -          -          -          -
Neighborhoods      :      Calls  SetupTime  SolveTime SolveNodes       Sols       Best       Exp3  EpsGreedy        UCB TgtFixRate  Opt  Inf Node Stal  Sol  Usr Othr Actv
  rens             :          1       0.00       0.00          0          0          0    0.00000   -1.00000    0.07176      0.900    0    0    0    0    0    0    1    1
  rins             :          2       0.05       0.04         23          0          0    0.00000   -1.00000    0.51994      0.550    0    2    0    0    0    0    0    1
  mutation         :          3       0.10       0.26         71          0          0    0.00000   -1.00000    0.45823      0.662    0    2    0    1    0    0    0    1
  localbranching   :          4       0.10       0.25        269          4          4    0.00000   -1.00000    0.52516      0.578    2    1    0    1    0    0    0    1
  crossover        :          4       0.22       0.85        112          0          0    0.00000   -1.00000    0.42405      0.522    0    3    0    1    0    0    0    1
  proximity        :          2       0.09       0.10         68          0          0    0.00000   -1.00000    0.46051      0.850    0    1    0    1    0    0    0    1
  zeroobjective    :          5       0.17       0.31        163          1          1    0.00000   -1.00000    0.49386      0.641    1    2    0    2    0    0    0    1
  dins             :          3       0.11       0.13         79          0          0    0.00000   -1.00000    0.43946      0.662    0    2    0    1    0    0    0    1
  trustregion      :          0       0.00       0.00          0          0          0    0.00000   -1.00000    1.00000      0.900    0    0    0    0    0    0    0    0
Expressions        :   #IntEval  IntEvalTi   #RevProp  RevPropTi    DomReds    Cutoffs  #Estimate  EstimTime  Branching  #Simplify SimplifyTi Simplified
  pow              :          0       0.00          0       0.00          0          0          0       0.00          0          0       0.00          0
  prod             :       6320       0.03          0       0.00          0          0          0       0.00          0       4690       0.00          0
  sum              :          8       0.00          2       0.00          0          0          0       0.00          0          3       0.03          2
  var              :       5485       0.00          0       0.00          0          0          0       0.00          0      11154       0.00          0
  varidx           :          0       0.00          0       0.00          0          0          0       0.00          0          0       0.00          0
LP                 :       Time      Calls Iterations  Iter/call   Iter/sec  Time-0-It Calls-0-It    ItLimit
  primal LP        :     148.55      11667          0       0.00       0.00     148.54      11667
  dual LP          :    2679.99     130479   13975281     114.67    5214.68       3.38       8603
  lex dual LP      :       0.00          0          0       0.00          -
  barrier LP       :       0.00          0          0       0.00          -       0.00          0
  resolve instable :       0.00          0          0       0.00          -
  diving/probing LP:     280.61      11560    3090563     267.35   11013.73
  strong branching :      27.40       3540     326604      92.26   11919.85          -          -         69
    (at root node) :          -         19       2445     128.68          -
  conflict analysis:       5.25       3500      34469       9.85    6565.52
NLP relaxation     :
  solve time       :       9.63 (9 calls)
  convexity        :  nonconvex (4 linear rows, 0 convex ineq., 0 nonconvex ineq., 1530 nonlinear eq. or two-sided ineq.)
NLP Solvers        :  #Problems  ProblemTi    #Solves  SolveTime      #Iter  Time/Iter      #Okay #TimeLimit #IterLimit #LObjLimit #Interrupt  #NumError #EvalError  #OutOfMem #LicenseEr #OtherTerm   #GlobOpt    #LocOpt  #Feasible #LocInfeas #GlobInfea #Unbounded   #Unknown
  ipopt            :          4       4.22         18      33.42        728       0.05         16          0          2          0          0          0          0          0          0          0          0          1          1          9          0          0          7
B&B Tree           :
  number of runs   :          1
  nodes            :     107648 (62490 internal, 45158 leaves)
  feasible leaves  :          6
  infeas. leaves   :         24
  objective leaves :      45127
  nodes (total)    :     107648 (62490 internal, 45158 leaves)
  nodes left       :      17313
  max depth        :         50
  max depth (total):         50
  backtracks       :      24848 (23.1%)
  early backtracks :          0 (0.0%)
  nodes exc. ref.  :          0 (0.0%)
  delayed cutoffs  :          0
  repropagations   :       2958 (78 domain reductions, 0 cutoffs)
  avg switch length:       5.13
  switching time   :     168.46
Estim. Tree Size   :     215336
Estimation Tree    : 124981 nodes (107668 visited, 62490 internal, 45178 leaves, 17313 open), weight: 0.0000 completed 0.1480
Estimations        :      estim      value      trend resolution     smooth
  wbe              : 6722783951          -          -          -          -
  tree-profile     :         -1          -          -          -          -
  gap              :    1114964    0.79849    0.00003         64    1117109
  tree-weight      :     215336    0.00001    0.00000         64     215001
  leaf-frequency   :    1201083    0.41960    0.00001         64    1276937
  ssg              :    4005168    0.76629   -0.00003         64    4070634
  open-nodes       :     215336 17313.00000   12.34785         64     215001
Root Node          :
  First LP value   : -1.00000000000000e+00
  First LP Iters   :       1020 (12750.00 Iter/sec)
  First LP Time    :       0.08
  Final Dual Bound : -9.41736990154715e-01
  Final Root Iters :       1544
  Root LP Estimate : -5.29745577560719e-01
Solution           :
  Solutions found  :         37 (29 improvements)
  First Solution   : +1.00000000000000e+05   (in run 1, after 0 nodes, 0.04 seconds, depth 0, found by <trivial>)
  Gap First Sol.   :   infinite
  Gap Last Sol.    :      27.62 %
  Primal Bound     : -5.79113924050633e-01   (in run 1, after 67238 nodes, 2074.35 seconds, depth 38, found by <relaxation>)
  Dual Bound       : -7.25260937153011e-01
  Gap              :      25.24 %
Integrals          :      Total       Avg%
  primal-dual      :   84703.25      23.53
  primal-ref       :          -          - (not evaluated)
  dual-ref         :          -          - (not evaluated)
